1 3 5 45 46 8 7 79 73 78 60 55 
91 95 62 85 63 89 76 51 84 56 
81 54 39 36 35 37 72 71 93 96 
65 99 52 86 74 58 75 77 25 57 
88 6 4 2 100 70 
69 98 53 9 87 59 97 13 16 17 47 14 12 
42 44 43 40 38 41 61 68 
64 20 23 21 48 18 19 49 22 24 83 66 
15 11 10 82 90 
92 34 31 29 27 26 28 33 30 32 50 67 94 80 
